50	100	100	100
7	77	68
35	45	1
76	87	11
75	29	24
74	64	5
86	69	34
9	24	13
1	11	60
80	84	66
64	24	92
96	96	18
40	28	97
75	15	53
7	26	21
12	53	50
93	19	57
68	95	53
37	75	53
72	48	44
92	35	81
58	69	31
28	18	56
78	40	79
14	23	62
21	29	6
85	82	89
18	88	15
57	96	7
64	26	25
41	64	20
12	15	16
40	39	2
57	99	71
6	70	93
80	64	5
34	21	42
30	36	22
86	52	72
1	19	71
99	18	12
38	86	1
72	91	92
80	23	42
15	14	39
17	14	14
69	29	21
12	26	46
11	90	37
39	36	34
83	12	57
